Version identifier: 12.10.0.0 | 2019-11-26 | 843d4de
CPXPARAM_WorkMem                                 16384
CPXPARAM_MIP_Limits_TreeMemory                   24576
Tried aggregator 2 times.
Aggregator did 40 substitutions.
Reduced MIP has 225 rows, 300 columns, and 1105 nonzeros.
Reduced MIP has 300 binaries, 0 generals, 0 SOSs, and 0 indicators.
Presolve time = 0,00 sec. (1,03 ticks)
Found incumbent of value 705,000000 after 0,00 sec. (1,80 ticks)
Probing time = 0,00 sec. (0,37 ticks)
Tried aggregator 1 time.
Detecting symmetries...
MIP Presolve eliminated 40 rows and 0 columns.
MIP Presolve added 80 rows and 0 columns.
Reduced MIP has 265 rows, 300 columns, and 1145 nonzeros.
Reduced MIP has 300 binaries, 0 generals, 0 SOSs, and 0 indicators.
Presolve time = 0,00 sec. (1,39 ticks)
Probing time = 0,00 sec. (0,37 ticks)
Clique table members: 725.
MIP emphasis: balance optimality and feasibility.
MIP search method: dynamic search.
Parallel mode: deterministic, using up to 16 threads.
Root relaxation solution time = 0,00 sec. (0,84 ticks)

        Nodes                                         Cuts/
   Node  Left     Objective  IInf  Best Integer    Best Bound    ItCnt     Gap

*     0+    0                          705,0000        0,0000           100,00%
*     0+    0                          351,0000        0,0000           100,00%
*     0+    0                          344,0000        0,0000           100,00%
      0     0      141,0000   148      344,0000      141,0000      100   59,01%
      0     0      141,0000   148      344,0000     Cuts: 166      146   59,01%
      0     0      141,0000   148      344,0000     Cuts: 166      232   59,01%
      0     0      141,0000   148      344,0000     Cuts: 166      328   59,01%
*     0+    0                          323,0000      141,0000            56,35%
*     0+    0                          298,0000      141,0000            52,68%
      0     2      147,8585   201      298,0000      141,0000      354   52,68%
Elapsed time = 0,09 sec. (44,77 ticks, tree = 0,02 MB, solutions = 5)
   1770  1274      272,4897    71      298,0000      168,3191    26466   43,52%

Performing restart 1

Repeating presolve.
Tried aggregator 1 time.
MIP Presolve eliminated 9 rows and 9 columns.
MIP Presolve added 8 rows and 0 columns.
MIP Presolve modified 16 coefficients.
Reduced MIP has 264 rows, 291 columns, and 1104 nonzeros.
Reduced MIP has 291 binaries, 0 generals, 0 SOSs, and 0 indicators.
Presolve time = 0,00 sec. (0,97 ticks)
Tried aggregator 1 time.
Reduced MIP has 264 rows, 291 columns, and 1104 nonzeros.
Reduced MIP has 291 binaries, 0 generals, 0 SOSs, and 0 indicators.
Presolve time = 0,00 sec. (0,91 ticks)
Represolve time = 0,01 sec. (5,13 ticks)
   5069     0      154,3772   232      298,0000      Cuts: 16    97895   28,60%
   5069     0      154,4744   232      298,0000       Cuts: 4    97902   28,60%
   5069     0      155,4556   232      298,0000       Cuts: 7    97946   28,60%
   5069     0      156,3025   232      298,0000       Cuts: 6    98010   28,60%
   5069     2      156,3025   291      298,0000      212,7708    98010   28,60%
   5342   111      239,2568   134      298,0000      212,7708   103743   28,60%
   6543  1088      269,3966   173      298,0000      212,7708   157225   28,60%
   8124  2195      222,3064   237      298,0000      212,7708   218003   28,60%
   9706  3566      243,5474   198      298,0000      212,7708   272745   28,60%
  11647  5157      254,9870   109      298,0000      212,7708   336669   28,60%

Performing restart 2

Repeating presolve.
Tried aggregator 1 time.
Reduced MIP has 264 rows, 291 columns, and 1104 nonzeros.
Reduced MIP has 291 binaries, 0 generals, 0 SOSs, and 0 indicators.
Presolve time = 0,00 sec. (0,64 ticks)
Tried aggregator 1 time.
Reduced MIP has 264 rows, 291 columns, and 1104 nonzeros.
Reduced MIP has 291 binaries, 0 generals, 0 SOSs, and 0 indicators.
Presolve time = 0,00 sec. (0,91 ticks)
Represolve time = 0,02 sec. (15,40 ticks)
  11748     0      157,3462   291      298,0000       Cuts: 2   358625   28,60%
  11748     0      157,5744   291      298,0000       Cuts: 2   358654   28,60%
  11748     0      157,6011   291      298,0000       Cuts: 9   358663   28,60%
  11748     0      158,0801   291      298,0000       Cuts: 5   358735   28,60%
  11748     0      160,0287   291      298,0000      Cuts: 15   358834   28,60%
  11748     0      161,3666   291      298,0000      Cuts: 15   358916   28,60%
  11748     0      161,4837   291      298,0000       Cuts: 8   358927   28,60%
  11748     2      161,4837   291      298,0000      212,7708   358927   28,60%
  15212  2407      294,0000     6      298,0000      228,0274   442130   23,48%
* 24089+ 7762                          297,0000      257,3467            13,35%
* 26168  8554      integral     0      296,0000      260,3624   805175   12,04%
  28182  9022      287,0278    37      296,0000      263,2094   856827   11,08%
Elapsed time = 4,11 sec. (3474,41 ticks, tree = 10,55 MB, solutions = 7)
* 38180  7983      integral     0      295,0000      280,9220  1255076    4,77%
  38694  7139        cutoff            295,0000      281,6979  1273542    4,51%

Clique cuts applied:  49
Cover cuts applied:  454
Mixed integer rounding cuts applied:  4
Zero-half cuts applied:  12
Gomory fractional cuts applied:  24

Root node processing (before b&c):
  Real time             =    0,09 sec. (44,63 ticks)
Parallel b&c, 16 threads:
  Real time             =    6,32 sec. (4756,09 ticks)
  Sync time (average)   =    1,75 sec.
  Wait time (average)   =    0,01 sec.
                          ------------
Total (root+branch&cut) =    6,41 sec. (4800,72 ticks)
